4 
5  24 51 
6  07 27 42 54 
7  02 09 17 24 32 39 47 54 
8  02 09 17 24 32 39 47 54 
9  02 09 17 27 36 44 51 59 
10  06 14 21 29 36 44 51 59 
11  06 14 21 29 36 44 51 59 
12  06 14 21 29 36 44 51 59 
13  06 14 22 30 38 45 53 
14  00 08 15 23 30 38 45 53 
15  02 10 17 25 32 40 47 55 
16  02 10 17 25 32 40 47 55 
17  02 10 17 25 32 40 47 55 
18  02 10 17 25 32 40 47 55 
19  02 10 17 25 32 40 47 55 
20  03 10 17 25 32 40 47 55 
21  02 10 17 25 32 47 
22  02 17 32 48 
23  03 18 31 46 
0 
